10  6   1   
6   1   1   333 1   2   991 1   3   996 1   4   123 1   5   145 1   6   234 
6   1   1   333 1   2   111 1   3   663 1   4   456 1   5   785 1   6   532 
6   1   1   252 1   2   222 1   3   222 1   4   789 1   5   214 1   6   586 
6   1   1   222 1   2   204 1   3   114 1   4   876 1   5   752 1   6   532 
6   1   1   255 1   2   477 1   3   123 1   4   543 1   5   143 1   6   142 
6   1   1   555 1   2   566 1   3   456 1   4   210 1   5   698 1   6   573 
6   1   1   558 1   2   899 1   3   789 1   4   124 1   5   532 1   6   12  
6   1   1   888 1   2   965 1   3   876 1   4   537 1   5   145 1   6   14  
6   1   1   889 1   2   588 1   3   543 1   4   854 1   5   247 1   6   527 
6   1   1   999 1   2   889 1   3   210 1   4   632 1   5   451 1   6   856 
